
<<< setup


<<< generate

Version identifier: 12.10.0.0 | 2019-11-26 | 843d4de2ae
CPXPARAM_TimeLimit                               1200
Tried aggregator 2 times.
MIP Presolve eliminated 5192366 rows and 2958925 columns.
MIP Presolve modified 415200 coefficients.
Aggregator did 1269 substitutions.
Reduced MIP has 57015 rows, 58856 columns, and 356294 nonzeros.
Reduced MIP has 58806 binaries, 0 generals, 0 SOSs, and 0 indicators.
Presolve time = 5.94 sec. (3724.05 ticks)
Found incumbent of value 0.000000 after 8.72 sec. (4715.83 ticks)
Probing time = 0.27 sec. (25.61 ticks)
Tried aggregator 1 time.
Detecting symmetries...
Reduced MIP has 57015 rows, 58856 columns, and 356294 nonzeros.
Reduced MIP has 58806 binaries, 0 generals, 0 SOSs, and 0 indicators.
Presolve time = 0.48 sec. (281.38 ticks)
Probing time = 0.19 sec. (22.43 ticks)
Clique table members: 199716.
MIP emphasis: balance optimality and feasibility.
MIP search method: dynamic search.
Parallel mode: deterministic, using up to 4 threads.
Root relaxation solution time = 2.06 sec. (1259.29 ticks)

        Nodes                                         Cuts/
   Node  Left     Objective  IInf  Best Integer    Best Bound    ItCnt     Gap

*     0+    0                            0.0000   115513.0000              --- 
      0     0   115513.0000   954        0.0000   115513.0000     7776     --- 
      0     0   115513.0000   954        0.0000      Cuts: 14     8379     --- 
      0     0   115513.0000   954        0.0000    Cuts: 9597    20274     --- 
      0     0   115513.0000   954        0.0000      Cuts: 25    20756     --- 
*     0+    0                         3911.0000   115513.0000              --- 
      0     0   115513.0000   954     3911.0000    Cuts: 9449    31171     --- 
Heuristic still looking.
      0     2   115513.0000   924     3911.0000   115513.0000    40787     --- 
Elapsed time = 362.53 sec. (225186.14 ticks, tree = 0.02 MB, solutions = 2)
      1     3   115513.0000   874     3911.0000   115513.0000    42575     --- 
      2     4   115513.0000   895     3911.0000   115513.0000    43988     --- 
      3     5   115513.0000   895     3911.0000   115513.0000    45761     --- 
      4     6   115513.0000   917     3911.0000   115513.0000    47658     --- 
      5     5   115513.0000   871     3911.0000   115513.0000    44039     --- 
      6     8   115513.0000  1189     3911.0000   115513.0000    58039     --- 
      7     7   115513.0000   758     3911.0000   115513.0000    71983     --- 
      8     3   115513.0000   962     3911.0000   115513.0000    40992     --- 
     10     9   115513.0000   842     3911.0000   115513.0000    73522     --- 
     13    10   115513.0000   946     3911.0000   115513.0000    74103     --- 
Elapsed time = 406.69 sec. (244031.45 ticks, tree = 0.09 MB, solutions = 2)
     18    11   115513.0000   877     3911.0000   115513.0000    75613     --- 
     24    19   115513.0000   756     3911.0000   115513.0000    90661     --- 
     29    22   115513.0000   766     3911.0000   115513.0000    91800     --- 
     33    16   115513.0000   851     3911.0000   115513.0000    89523     --- 
     38    25   115513.0000   898     3911.0000   115513.0000    97036     --- 
     40    26   115513.0000   882     3911.0000   115513.0000    97944     --- 
     48    31   115513.0000   833     3911.0000   115513.0000   104283     --- 
     52    44   115513.0000   944     3911.0000   115513.0000   112941     --- 
     54    46   115513.0000   960     3911.0000   115513.0000   113889     --- 
     63    48   115513.0000   923     3911.0000   115513.0000   114769     --- 
Elapsed time = 431.00 sec. (254852.01 ticks, tree = 0.80 MB, solutions = 2)
     67    50   115513.0000   931     3911.0000   115513.0000   116032     --- 
     72    52   115513.0000   650     3911.0000   115513.0000   120598     --- 
     76    51   115513.0000   853     3911.0000   115513.0000   145012     --- 
     79    71   115513.0000   678     3911.0000   115513.0000   151296     --- 
     80    55   115513.0000   845     3911.0000   115513.0000   152305     --- 
     81    74   115513.0000   818     3911.0000   115513.0000   177796     --- 
     87    75   115513.0000   780     3911.0000   115513.0000   178428     --- 
     92    80   115513.0000   995     3911.0000   115513.0000   204927     --- 
    100    82   115513.0000   793     3911.0000   115513.0000   214395     --- 
    104    84   115513.0000   659     3911.0000   115513.0000   213443     --- 
Elapsed time = 461.94 sec. (268515.47 ticks, tree = 1.25 MB, solutions = 2)
    110    86   115513.0000   634     3911.0000   115513.0000   213997     --- 
    114    85   115513.0000   725     3911.0000   115513.0000   200693     --- 
    118    93   115513.0000   810     3911.0000   115513.0000   220216     --- 
    126    82    infeasible           3911.0000   115513.0000   218336     --- 
    131   103   115513.0000   850     3911.0000   115513.0000   227317     --- 
    136   109   115513.0000   831     3911.0000   115513.0000   233547     --- 
    145   102   115513.0000   798     3911.0000   115513.0000   226951     --- 
    158   108    infeasible           3911.0000   115513.0000   236080     --- 
    175   136   115513.0000   839     3911.0000   115513.0000   259911     --- 
    183   133   115513.0000   911     3911.0000   115513.0000   253837     --- 
Elapsed time = 487.38 sec. (280265.30 ticks, tree = 2.26 MB, solutions = 2)
    192   127   115513.0000   738     3911.0000   115513.0000   244554     --- 
    197   130   115513.0000   665     3911.0000   115513.0000   245547     --- 
    203   144    infeasible           3911.0000   115513.0000   266491     --- 
    209   148   115513.0000   620     3911.0000   115513.0000   267780     --- 
    216   151   115513.0000   609     3911.0000   115513.0000   268671     --- 
    220   152   115513.0000   619     3911.0000   115513.0000   269659     --- 
    225   151    infeasible           3911.0000   115513.0000   274335     --- 
    233   155    infeasible           3911.0000   115513.0000   271578     --- 
    237   151    infeasible           3911.0000   115513.0000   277443     --- 
    239   160   115513.0000   619     3911.0000   115513.0000   277551     --- 
Elapsed time = 512.63 sec. (291675.02 ticks, tree = 2.98 MB, solutions = 2)
    243   160   115513.0000   638     3911.0000   115513.0000   284204     --- 
    254   159    infeasible           3911.0000   115513.0000   285335     --- 
    262   162    infeasible           3911.0000   115513.0000   281707     --- 
    274   164   115513.0000   616     3911.0000   115513.0000   288362     --- 
    282   180    infeasible           3911.0000   115513.0000   299802     --- 
    289   180   115513.0000   622     3911.0000   115513.0000   297006     --- 
    298   179   115513.0000   781     3911.0000   115513.0000   296469     --- 
    306   192   115513.0000   782     3911.0000   115513.0000   307439     --- 
    308   194   115513.0000   678     3911.0000   115513.0000   308490     --- 
    312   197   115513.0000   713     3911.0000   115513.0000   309759     --- 
Elapsed time = 537.83 sec. (303864.26 ticks, tree = 3.85 MB, solutions = 2)
    321   200   115513.0000   706     3911.0000   115513.0000   310647     --- 
    334   198   115513.0000   617     3911.0000   115513.0000   313091     --- 
    346   199   115513.0000   574     3911.0000   115513.0000   317413     --- 
    349   202   115513.0000   673     3911.0000   115513.0000   311729     --- 
    355   200    infeasible           3911.0000   115513.0000   319713     --- 
    374   212   115513.0000   642     3911.0000   115513.0000   323164     --- 
    380   215   115513.0000   646     3911.0000   115513.0000   324373     --- 
    387   217   115513.0000   962     3911.0000   115513.0000   327796     --- 
    389   219   115513.0000   938     3911.0000   115513.0000   328831     --- 
    399   220   115513.0000   632     3911.0000   115513.0000   333151     --- 
Elapsed time = 561.08 sec. (315041.36 ticks, tree = 4.30 MB, solutions = 2)
    411   229   115513.0000   526     3911.0000   115513.0000   336149     --- 
    425   222   115513.0000   552     3911.0000   115513.0000   334880     --- 
    431   228   115513.0000   901     3911.0000   115513.0000   333752     --- 
    436   229   115513.0000   560     3911.0000   115513.0000   337281     --- 
    445   232   115513.0000   810     3911.0000   115513.0000   336072     --- 
    449   254   115513.0000   813     3911.0000   115513.0000   353996     --- 
    459   257   115513.0000   531     3911.0000   115513.0000   361871     --- 
    479   227    infeasible           3911.0000   115513.0000   338561     --- 
    491   228    infeasible           3911.0000   115513.0000   339375     --- 
    508   260   115513.0000   551     3911.0000   115513.0000   365526     --- 
Elapsed time = 582.25 sec. (325093.06 ticks, tree = 5.26 MB, solutions = 2)
    515   259    infeasible           3911.0000   115513.0000   366446     --- 
    524   260    infeasible           3911.0000   115513.0000   367038     --- 
    528   256   115513.0000   597     3911.0000   115513.0000   364991     --- 
    535   259   115513.0000   626     3911.0000   115513.0000   365935     --- 
    550   258   115513.0000   593     3911.0000   115513.0000   366985     --- 
    556   259    infeasible           3911.0000   115513.0000   368308     --- 
    566   259    infeasible           3911.0000   115513.0000   369703     --- 
    578   264    infeasible           3911.0000   115513.0000   376238     --- 
    581   267    infeasible           3911.0000   115513.0000   384068     --- 
    586   268   115513.0000   579     3911.0000   115513.0000   385090     --- 
Elapsed time = 608.31 sec. (336494.30 ticks, tree = 5.43 MB, solutions = 2)
    599   268   115513.0000   615     3911.0000   115513.0000   379466     --- 
    605   268   115513.0000   588     3911.0000   115513.0000   380470     --- 
    612   260    infeasible           3911.0000   115513.0000   387043     --- 
    613   264    infeasible           3911.0000   115513.0000   387174     --- 
    615   261   115513.0000   612     3911.0000   115513.0000   388379     --- 
    619   262    infeasible           3911.0000   115513.0000   401228     --- 
    627   264    infeasible           3911.0000   115513.0000   393644     --- 
    640   263    infeasible           3911.0000   115513.0000   394049     --- 
    648   261    infeasible           3911.0000   115513.0000   401798     --- 
    676   264   115513.0000   570     3911.0000   115513.0000   413387     --- 
Elapsed time = 640.06 sec. (351393.76 ticks, tree = 5.40 MB, solutions = 2)
    691   265   115513.0000   567     3911.0000   115513.0000   414838     --- 
    754   251   115513.0000   653     3911.0000   115513.0000   414983     --- 
    802   258   115513.0000   592     3911.0000   115513.0000   422668     --- 
    866   253    infeasible           3911.0000   115513.0000   432030     --- 
    871   258    infeasible           3911.0000   115513.0000   429447     --- 
    881   262    infeasible           3911.0000   115513.0000   442249     --- 
    888   260    infeasible           3911.0000   115513.0000   443312     --- 
    902   247    infeasible           3911.0000   115513.0000   448045     --- 
    909   233    infeasible           3911.0000   115513.0000   467147     --- 
    915   231    infeasible           3911.0000   115513.0000   469088     --- 
Elapsed time = 808.14 sec. (394970.45 ticks, tree = 4.38 MB, solutions = 2)
    918   230    infeasible           3911.0000   115513.0000   469942     --- 
    922   237   115513.0000   668     3911.0000   115513.0000   476282     --- 
    925   224   115513.0000   877     3911.0000   115513.0000   514611     --- 
    935   228   115513.0000   842     3911.0000   115513.0000   518713     --- 
    961   228   115513.0000   865     3911.0000   115513.0000   546009     --- 
   1001   234   115513.0000   740     3911.0000   115513.0000   550112     --- 
   1063   248   115513.0000   519     3911.0000   115513.0000   554585     --- 
   1142   268   115513.0000   559     3911.0000   115513.0000   589097     --- 
   1279   290   115513.0000   562     3911.0000   115513.0000   580528     --- 
   1448   278   115513.0000   521     3911.0000   115513.0000   584602     --- 
Elapsed time = 912.92 sec. (435432.40 ticks, tree = 5.68 MB, solutions = 2)
   1537   295   115513.0000   565     3911.0000   115513.0000   626726     --- 
   1609   291   115513.0000   515     3911.0000   115513.0000   620705     --- 
   1702   309   115513.0000   612     3911.0000   115513.0000   664761     --- 
   1784   311    infeasible           3911.0000   115513.0000   667756     --- 
   1876   310    infeasible           3911.0000   115513.0000   671623     --- 
   1920   325   115513.0000   492     3911.0000   115513.0000   709499     --- 
   2007   328   115513.0000   474     3911.0000   115513.0000   723941     --- 
   2082   333   115513.0000   494     3911.0000   115513.0000   741825     --- 
   2140   329   115513.0000   577     3911.0000   115513.0000   732171     --- 
   2219   338    infeasible           3911.0000   115513.0000   766575     --- 
Elapsed time = 996.72 sec. (474200.22 ticks, tree = 6.91 MB, solutions = 2)
   2307   338    infeasible           3911.0000   115513.0000   776424     --- 
   2414   344   115513.0000   493     3911.0000   115513.0000   789716     --- 
   2472   347   115513.0000   491     3911.0000   115513.0000   798498     --- 
   2514   341   115513.0000   518     3911.0000   115513.0000   801548     --- 
   2536   351    infeasible           3911.0000   115513.0000   830184     --- 
   2544   346   115513.0000   366     3911.0000   115513.0000   821768     --- 
   2561   344    infeasible           3911.0000   115513.0000   836301     --- 
   2571   333    infeasible           3911.0000   115513.0000   848693     --- 
   2578   326    infeasible           3911.0000   115513.0000   851718     --- 
Starting limited solution polishing.
   2610   308   115513.0000   529     3911.0000   115513.0000   869734     --- 
Elapsed time = 1130.23 sec. (513541.93 ticks, tree = 5.83 MB, solutions = 2)
   2690   309   115513.0000   506     3911.0000   115513.0000   870873     --- 
   2775   335   115513.0000   465     3911.0000   115513.0000   899053     --- 
   2900   376    infeasible           3911.0000   115513.0000   891315     --- 
   3021   397   115513.0000   519     3911.0000   115513.0000   905249     --- 
   3116   372    infeasible           3911.0000   115513.0000   921908     --- 
   3170   413   115513.0000   470     3911.0000   115513.0000   946915     --- 
   3226   469   115513.0000   481     3911.0000   115513.0000   949488     --- 
   3248   485   115513.0000   466     3911.0000   115513.0000   951515     --- 

Cover cuts applied:  1
Implied bound cuts applied:  973
Flow cuts applied:  589
Mixed integer rounding cuts applied:  36

Root node processing (before b&c):
  Real time             =  345.94 sec. (213710.35 ticks)
Parallel b&c, 4 threads:
  Real time             =  854.55 sec. (338409.64 ticks)
  Sync time (average)   =   91.16 sec.
  Wait time (average)   =    0.00 sec.
                          ------------
Total (root+branch&cut) = 1200.48 sec. (552119.99 ticks)

<<< solve


OBJECTIVE: 3911

<<< post process


<<< done

